wmc_benchmarks/WMCBenchSingleMea/wstate_nativegates_ibm_qiskit_opt0_3.qasm.cnf
p cnf 132 507
c p weight 9 1 0
c p weight -9 1 0
c p weight 10 0 0
c p weight -10 1 0
c p weight -7 1 0
c p weight 7 -1 0
c p weight 13 6.12323399573676603586882014729198302312846062338790031898128063403419218957424163818359375E-17 0
c p weight -13 1 0
c p weight 14 1 0
c p weight -14 1 0
c p weight -11 1 0
c p weight 11 -1 0
c p weight 17 -0.707106781186547461715008466853760182857513427734375 0
c p weight -17 1 0
c p weight 18 0.70710678118654757273731092936941422522068023681640625 0
c p weight -18 1 0
c p weight -15 1 0
c p weight 15 -1 0
c p weight 21 6.12323399573676603586882014729198302312846062338790031898128063403419218957424163818359375E-17 0
c p weight -21 1 0
c p weight 22 1 0
c p weight -22 1 0
c p weight -19 1 0
c p weight 19 -1 0
c p weight 25 -1 0
c p weight -25 1 0
c p weight 26 3.673940397442059375002259206809000622711899723162043418511757408850826323032379150390625E-16 0
c p weight -26 1 0
c p weight -23 1 0
c p weight 23 -1 0
c p weight -27 1 0
c p weight 27 -1 0
c p weight 31 6.12323399573676603586882014729198302312846062338790031898128063403419218957424163818359375E-17 0
c p weight -31 1 0
c p weight 32 1 0
c p weight -32 1 0
c p weight -29 1 0
c p weight 29 -1 0
c p weight -33 1 0
c p weight 33 -1 0
c p weight 37 1 0
c p weight -37 1 0
c p weight 38 0 0
c p weight -38 1 0
c p weight -35 1 0
c p weight 35 -1 0
c p weight 41 6.12323399573676603586882014729198302312846062338790031898128063403419218957424163818359375E-17 0
c p weight -41 1 0
c p weight 42 1 0
c p weight -42 1 0
c p weight -39 1 0
c p weight 39 -1 0
c p weight 45 -0.577350269189625731058868041145615279674530029296875 0
c p weight -45 1 0
c p weight 46 0.8164965809277260344600790631375275552272796630859375 0
c p weight -46 1 0
c p weight -43 1 0
c p weight 43 -1 0
c p weight 49 6.12323399573676603586882014729198302312846062338790031898128063403419218957424163818359375E-17 0
c p weight -49 1 0
c p weight 50 1 0
c p weight -50 1 0
c p weight -47 1 0
c p weight 47 -1 0
c p weight 53 -1 0
c p weight -53 1 0
c p weight 54 3.673940397442059375002259206809000622711899723162043418511757408850826323032379150390625E-16 0
c p weight -54 1 0
c p weight -51 1 0
c p weight 51 -1 0
c p weight -55 1 0
c p weight 55 -1 0
c p weight 59 6.12323399573676603586882014729198302312846062338790031898128063403419218957424163818359375E-17 0
c p weight -59 1 0
c p weight 60 1 0
c p weight -60 1 0
c p weight -57 1 0
c p weight 57 -1 0
c p weight -61 1 0
c p weight 61 -1 0
c p weight -63 1 0
c p weight 63 -1 0
c p weight -64 1 0
c p weight 64 -1 0
c p weight -67 1 0
c p weight 67 -1 0
c p weight 71 6.12323399573676603586882014729198302312846062338790031898128063403419218957424163818359375E-17 0
c p weight -71 1 0
c p weight 72 1 0
c p weight -72 1 0
c p weight -69 1 0
c p weight 69 -1 0
c p weight -73 1 0
c p weight 73 -1 0
c p weight 77 1 0
c p weight -77 1 0
c p weight 78 0 0
c p weight -78 1 0
c p weight -75 1 0
c p weight 75 -1 0
c p weight 81 6.12323399573676603586882014729198302312846062338790031898128063403419218957424163818359375E-17 0
c p weight -81 1 0
c p weight 82 1 0
c p weight -82 1 0
c p weight -79 1 0
c p weight 79 -1 0
c p weight 85 -0.57735026918962562003656557862996123731136322021484375 0
c p weight -85 1 0
c p weight 86 -0.81649658092772614548238152565318159759044647216796875 0
c p weight -86 1 0
c p weight -83 1 0
c p weight 83 -1 0
c p weight 89 6.12323399573676603586882014729198302312846062338790031898128063403419218957424163818359375E-17 0
c p weight -89 1 0
c p weight 90 1 0
c p weight -90 1 0
c p weight -87 1 0
c p weight 87 -1 0
c p weight 93 -1 0
c p weight -93 1 0
c p weight 94 3.673940397442059375002259206809000622711899723162043418511757408850826323032379150390625E-16 0
c p weight -94 1 0
c p weight -91 1 0
c p weight 91 -1 0
c p weight -95 1 0
c p weight 95 -1 0
c p weight -98 1 0
c p weight 98 -1 0
c p weight 102 6.12323399573676603586882014729198302312846062338790031898128063403419218957424163818359375E-17 0
c p weight -102 1 0
c p weight 103 1 0
c p weight -103 1 0
c p weight -100 1 0
c p weight 100 -1 0
c p weight -104 1 0
c p weight 104 -1 0
c p weight 108 1 0
c p weight -108 1 0
c p weight 109 0 0
c p weight -109 1 0
c p weight -106 1 0
c p weight 106 -1 0
c p weight 112 6.12323399573676603586882014729198302312846062338790031898128063403419218957424163818359375E-17 0
c p weight -112 1 0
c p weight 113 1 0
c p weight -113 1 0
c p weight -110 1 0
c p weight 110 -1 0
c p weight 116 -0.7071067811865476837596133918850682675838470458984375 0
c p weight -116 1 0
c p weight 117 -0.707106781186547461715008466853760182857513427734375 0
c p weight -117 1 0
c p weight -114 1 0
c p weight 114 -1 0
c p weight 120 6.12323399573676603586882014729198302312846062338790031898128063403419218957424163818359375E-17 0
c p weight -120 1 0
c p weight 121 1 0
c p weight -121 1 0
c p weight -118 1 0
c p weight 118 -1 0
c p weight 124 -1 0
c p weight -124 1 0
c p weight 125 3.673940397442059375002259206809000622711899723162043418511757408850826323032379150390625E-16 0
c p weight -125 1 0
c p weight -122 1 0
c p weight 122 -1 0
c p weight -126 1 0
c p weight 126 -1 0
c p weight -129 1 0
c p weight 129 -1 0
c p weight 132 0.5 0
c p weight -132 1 0
132 0
-5 0
-3 0
-1 0
-7 1 0
-7 2 0
-7 -8 0
7 8 -1 -2 0
8 1 -2 0
-8 1 2 0
-9 1 0
8 -9 -2 0
-8 -9 2 0
8 9 -1 2 0
-8 9 -1 -2 0
-10 1 0
8 -10 2 0
-8 -10 -2 0
8 10 -1 -2 0
-8 10 -1 2 0
-11 12 0
-11 8 0
-11 -1 0
11 -12 1 -8 0
12 -1 8 0
-12 1 8 0
-13 8 0
12 -13 -1 0
-12 -13 1 0
12 13 1 -8 0
-12 13 -1 -8 0
-14 8 0
12 -14 1 0
-12 -14 -1 0
12 14 -1 -8 0
-12 14 1 -8 0
-15 12 0
-15 8 0
-15 -16 0
15 16 -12 -8 0
16 12 -8 0
-16 12 8 0
-17 12 0
16 -17 -8 0
-16 -17 8 0
16 17 -12 8 0
-16 17 -12 -8 0
-18 12 0
16 -18 8 0
-16 -18 -8 0
16 18 -12 -8 0
-16 18 -12 8 0
-19 20 0
-19 16 0
-19 -12 0
19 -20 12 -16 0
20 -12 16 0
-20 12 16 0
-21 16 0
20 -21 -12 0
-20 -21 12 0
20 21 12 -16 0
-20 21 -12 -16 0
-22 16 0
20 -22 12 0
-20 -22 -12 0
20 22 -12 -16 0
-20 22 12 -16 0
-23 20 0
-23 16 0
-23 -24 0
23 24 -20 -16 0
24 20 -16 0
-24 20 16 0
-25 20 0
24 -25 -16 0
-24 -25 16 0
24 25 -20 16 0
-24 25 -20 -16 0
-26 20 0
24 -26 16 0
-24 -26 -16 0
24 26 -20 -16 0
-24 26 -20 16 0
-27 20 0
-27 24 0
27 -20 -24 0
28 20 -24 0
28 -20 24 0
-28 20 24 0
-28 -20 -24 0
-29 30 0
-29 28 0
-29 -20 0
29 -30 20 -28 0
30 -20 28 0
-30 20 28 0
-31 28 0
30 -31 -20 0
-30 -31 20 0
30 31 20 -28 0
-30 31 -20 -28 0
-32 28 0
30 -32 20 0
-30 -32 -20 0
30 32 -20 -28 0
-30 32 20 -28 0
-33 30 0
-33 28 0
33 -30 -28 0
34 30 -28 0
34 -30 28 0
-34 30 28 0
-34 -30 -28 0
-35 3 0
-35 4 0
-35 -36 0
35 36 -3 -4 0
36 3 -4 0
-36 3 4 0
-37 3 0
36 -37 -4 0
-36 -37 4 0
36 37 -3 4 0
-36 37 -3 -4 0
-38 3 0
36 -38 4 0
-36 -38 -4 0
36 38 -3 -4 0
-36 38 -3 4 0
-39 40 0
-39 36 0
-39 -3 0
39 -40 3 -36 0
40 -3 36 0
-40 3 36 0
-41 36 0
40 -41 -3 0
-40 -41 3 0
40 41 3 -36 0
-40 41 -3 -36 0
-42 36 0
40 -42 3 0
-40 -42 -3 0
40 42 -3 -36 0
-40 42 3 -36 0
-43 40 0
-43 36 0
-43 -44 0
43 44 -40 -36 0
44 40 -36 0
-44 40 36 0
-45 40 0
44 -45 -36 0
-44 -45 36 0
44 45 -40 36 0
-44 45 -40 -36 0
-46 40 0
44 -46 36 0
-44 -46 -36 0
44 46 -40 -36 0
-44 46 -40 36 0
-47 48 0
-47 44 0
-47 -40 0
47 -48 40 -44 0
48 -40 44 0
-48 40 44 0
-49 44 0
48 -49 -40 0
-48 -49 40 0
48 49 40 -44 0
-48 49 -40 -44 0
-50 44 0
48 -50 40 0
-48 -50 -40 0
48 50 -40 -44 0
-48 50 40 -44 0
-51 48 0
-51 44 0
-51 -52 0
51 52 -48 -44 0
52 48 -44 0
-52 48 44 0
-53 48 0
52 -53 -44 0
-52 -53 44 0
52 53 -48 44 0
-52 53 -48 -44 0
-54 48 0
52 -54 44 0
-52 -54 -44 0
52 54 -48 -44 0
-52 54 -48 44 0
-55 48 0
-55 52 0
55 -48 -52 0
56 48 -52 0
56 -48 52 0
-56 48 52 0
-56 -48 -52 0
-57 58 0
-57 56 0
-57 -48 0
57 -58 48 -56 0
58 -48 56 0
-58 48 56 0
-59 56 0
58 -59 -48 0
-58 -59 48 0
58 59 48 -56 0
-58 59 -48 -56 0
-60 56 0
58 -60 48 0
-58 -60 -48 0
58 60 -48 -56 0
-58 60 48 -56 0
-61 58 0
-61 56 0
61 -58 -56 0
62 58 -56 0
62 -58 56 0
-62 58 56 0
-62 -58 -56 0
63 -6 0
-63 6 0
-64 5 0
-64 62 0
-64 58 -6 0
-64 -58 6 0
64 -5 58 6 -62 0
64 -5 -58 -6 -62 0
66 5 -58 0
66 -5 58 0
-66 5 58 0
-66 -5 -58 0
65 6 -62 0
65 -6 62 0
-65 6 62 0
-65 -6 -62 0
-67 66 0
-67 62 0
67 -66 -62 0
68 66 -62 0
68 -66 62 0
-68 66 62 0
-68 -66 -62 0
-69 70 0
-69 68 0
-69 -66 0
69 -70 66 -68 0
70 -66 68 0
-70 66 68 0
-71 68 0
70 -71 -66 0
-70 -71 66 0
70 71 66 -68 0
-70 71 -66 -68 0
-72 68 0
70 -72 66 0
-70 -72 -66 0
70 72 -66 -68 0
-70 72 66 -68 0
-73 70 0
-73 68 0
73 -70 -68 0
74 70 -68 0
74 -70 68 0
-74 70 68 0
-74 -70 -68 0
-75 70 0
-75 74 0
-75 -76 0
75 76 -70 -74 0
76 70 -74 0
-76 70 74 0
-77 70 0
76 -77 -74 0
-76 -77 74 0
76 77 -70 74 0
-76 77 -70 -74 0
-78 70 0
76 -78 74 0
-76 -78 -74 0
76 78 -70 -74 0
-76 78 -70 74 0
-79 80 0
-79 76 0
-79 -70 0
79 -80 70 -76 0
80 -70 76 0
-80 70 76 0
-81 76 0
80 -81 -70 0
-80 -81 70 0
80 81 70 -76 0
-80 81 -70 -76 0
-82 76 0
80 -82 70 0
-80 -82 -70 0
80 82 -70 -76 0
-80 82 70 -76 0
-83 80 0
-83 76 0
-83 -84 0
83 84 -80 -76 0
84 80 -76 0
-84 80 76 0
-85 80 0
84 -85 -76 0
-84 -85 76 0
84 85 -80 76 0
-84 85 -80 -76 0
-86 80 0
84 -86 76 0
-84 -86 -76 0
84 86 -80 -76 0
-84 86 -80 76 0
-87 88 0
-87 84 0
-87 -80 0
87 -88 80 -84 0
88 -80 84 0
-88 80 84 0
-89 84 0
88 -89 -80 0
-88 -89 80 0
88 89 80 -84 0
-88 89 -80 -84 0
-90 84 0
88 -90 80 0
-88 -90 -80 0
88 90 -80 -84 0
-88 90 80 -84 0
-91 88 0
-91 84 0
-91 -92 0
91 92 -88 -84 0
92 88 -84 0
-92 88 84 0
-93 88 0
92 -93 -84 0
-92 -93 84 0
92 93 -88 84 0
-92 93 -88 -84 0
-94 88 0
92 -94 84 0
-92 -94 -84 0
92 94 -88 -84 0
-92 94 -88 84 0
-95 88 0
-95 34 0
-95 30 -92 0
-95 -30 92 0
95 -88 30 92 -34 0
95 -88 -30 -92 -34 0
97 88 -30 0
97 -88 30 0
-97 88 30 0
-97 -88 -30 0
96 92 -34 0
96 -92 34 0
-96 92 34 0
-96 -92 -34 0
-98 97 0
-98 34 0
98 -97 -34 0
99 97 -34 0
99 -97 34 0
-99 97 34 0
-99 -97 -34 0
-100 101 0
-100 99 0
-100 -97 0
100 -101 97 -99 0
101 -97 99 0
-101 97 99 0
-102 99 0
101 -102 -97 0
-101 -102 97 0
101 102 97 -99 0
-101 102 -97 -99 0
-103 99 0
101 -103 97 0
-101 -103 -97 0
101 103 -97 -99 0
-101 103 97 -99 0
-104 101 0
-104 99 0
104 -101 -99 0
105 101 -99 0
105 -101 99 0
-105 101 99 0
-105 -101 -99 0
-106 101 0
-106 105 0
-106 -107 0
106 107 -101 -105 0
107 101 -105 0
-107 101 105 0
-108 101 0
107 -108 -105 0
-107 -108 105 0
107 108 -101 105 0
-107 108 -101 -105 0
-109 101 0
107 -109 105 0
-107 -109 -105 0
107 109 -101 -105 0
-107 109 -101 105 0
-110 111 0
-110 107 0
-110 -101 0
110 -111 101 -107 0
111 -101 107 0
-111 101 107 0
-112 107 0
111 -112 -101 0
-111 -112 101 0
111 112 101 -107 0
-111 112 -101 -107 0
-113 107 0
111 -113 101 0
-111 -113 -101 0
111 113 -101 -107 0
-111 113 101 -107 0
-114 111 0
-114 107 0
-114 -115 0
114 115 -111 -107 0
115 111 -107 0
-115 111 107 0
-116 111 0
115 -116 -107 0
-115 -116 107 0
115 116 -111 107 0
-115 116 -111 -107 0
-117 111 0
115 -117 107 0
-115 -117 -107 0
115 117 -111 -107 0
-115 117 -111 107 0
-118 119 0
-118 115 0
-118 -111 0
118 -119 111 -115 0
119 -111 115 0
-119 111 115 0
-120 115 0
119 -120 -111 0
-119 -120 111 0
119 120 111 -115 0
-119 120 -111 -115 0
-121 115 0
119 -121 111 0
-119 -121 -111 0
119 121 -111 -115 0
-119 121 111 -115 0
-122 119 0
-122 115 0
-122 -123 0
122 123 -119 -115 0
123 119 -115 0
-123 119 115 0
-124 119 0
123 -124 -115 0
-123 -124 115 0
123 124 -119 115 0
-123 124 -119 -115 0
-125 119 0
123 -125 115 0
-123 -125 -115 0
123 125 -119 -115 0
-123 125 -119 115 0
-126 88 0
-126 65 0
-126 5 -96 0
-126 -5 96 0
126 -88 5 96 -65 0
126 -88 -5 -96 -65 0
128 88 -5 0
128 -88 5 0
-128 88 5 0
-128 -88 -5 0
127 96 -65 0
127 -96 65 0
-127 96 65 0
-127 -96 -65 0
-129 119 0
-129 127 0
-129 88 -123 0
-129 -88 123 0
129 -119 88 123 -127 0
129 -119 -88 -123 -127 0
131 119 -88 0
131 -119 88 0
-131 119 88 0
-131 -119 -88 0
130 123 -127 0
130 -123 127 0
-130 123 127 0
-130 -123 -127 0
-119 0
-131 0
-127 0
-128 0
-65 0
